
n_res = 4;
rcap = [21, 19, 285, 276];
rtype = [1, 1, 2, 2];
n_tasks = 50;
modes =  [{1, 2, 3}, {4, 5, 6}, {7, 8, 9}, {10, 11, 12}, {13, 14, 15}, {16, 17, 18}, {19, 20, 21}, {22, 23, 24}, {25, 26, 27}, {28, 29, 30}, {31, 32, 33}, {34, 35, 36}, {37, 38, 39}, {40, 41, 42}, {43, 44, 45}, {46, 47, 48}, {49, 50, 51}, {52, 53, 54}, {55, 56, 57}, {58, 59, 60}, {61, 62, 63}, {64, 65, 66}, {67, 68, 69}, {70, 71, 72}, {73, 74, 75}, {76, 77, 78}, {79, 80, 81}, {82, 83, 84}, {85, 86, 87}, {88, 89, 90}, {91, 92, 93}, {94, 95, 96}, {97, 98, 99}, {100, 101, 102}, {103, 104, 105}, {106, 107, 108}, {109, 110, 111}, {112, 113, 114}, {115, 116, 117}, {118, 119, 120}, {121, 122, 123}, {124, 125, 126}, {127, 128, 129}, {130, 131, 132}, {133, 134, 135}, {136, 137, 138}, {139, 140, 141}, {142, 143, 144}, {145, 146, 147}, {148, 149, 150}];
succ =  [{13, 12, 3}, {13, 11, 10, 9, 6}, {5}, {17, 15, 13, 10, 9}, {10, 9, 6}, {29, 26, 21, 18, 17, 15, 14}, {17, 10}, {26, 21, 18, 17, 15, 14}, {29, 26, 24, 23, 21, 18, 16}, {29, 28, 26, 21, 18, 14}, {26, 23, 21, 18, 17, 16}, {29, 28, 26, 24, 21, 14}, {29, 28, 26, 24, 23, 21, 19, 18}, {23, 20, 19}, {30, 28, 25, 23, 22}, {30, 28, 20}, {34, 28, 25, 24}, {30, 27, 22}, {30, 27, 22}, {25, 22}, {34, 25}, {36, 34, 33, 32, 31}, {34, 33, 32, 27}, {33, 32, 30, 27}, {32, 31, 27}, {34, 27}, {45, 41, 39, 37, 36, 35}, {37, 36, 35, 32}, {40, 39, 37, 36, 34}, {39, 37, 36, 35}, {45, 38, 35}, {45, 42, 40, 39}, {45, 44, 40, 37}, {49, 45, 44, 43, 41, 38}, {43, 42, 40}, {50, 49, 44, 43}, {49, 43, 38}, {50, 48, 47, 46}, {49, 43}, {50, 49, 47}, {48, 47, 46}, {46, 44}, {48, 46}, {47}, {46}, {}, {}, {}, {}, {}];
n_opt = 150;
dur = [3, 4, 5, 2, 3, 4, 2, 3, 6, 4, 5, 6, 1, 7, 9, 4, 5, 10, 4, 6, 7, 2, 3, 9, 4, 5, 7, 1, 5, 8, 3, 9, 10, 1, 6, 9, 5, 7, 8, 7, 8, 9, 1, 5, 10, 3, 6, 7, 3, 4, 6, 8, 9, 10, 4, 6, 7, 2, 3, 8, 1, 3, 10, 3, 8, 9, 4, 5, 8, 4, 5, 10, 1, 3, 9, 1, 3, 4, 2, 3, 9, 1, 2, 3, 1, 5, 6, 5, 8, 9, 1, 3, 8, 3, 5, 10, 8, 9, 10, 2, 5, 8, 1, 6, 10, 4, 7, 8, 4, 5, 9, 5, 6, 7, 6, 8, 9, 4, 5, 6, 1, 3, 10, 4, 7, 10, 1, 3, 6, 3, 4, 5, 1, 2, 3, 2, 6, 7, 1, 2, 10, 5, 6, 7, 5, 6, 7, 4, 6, 8];
rreq = [|10, 8, 8, 5, 5, 3, 3, 3, 2, 4, 4, 3, 4, 3, 3, 4, 4, 4, 6, 4, 4, 8, 6, 6, 7, 5, 1, 3, 3, 2, 7, 7, 6, 8, 7, 7, 6, 5, 3, 9, 5, 5, 9, 7, 4, 7, 6, 6, 5, 5, 3, 9, 8, 6, 3, 3, 3, 7, 5, 4, 3, 1, 1, 4, 4, 3, 2, 1, 1, 8, 6, 4, 8, 8, 8, 9, 5, 2, 7, 7, 7, 4, 4, 4, 3, 2, 2, 4, 3, 1, 6, 5, 4, 4, 3, 3, 4, 4, 4, 10, 6, 5, 9, 8, 8, 5, 2, 1, 10, 7, 6, 10, 5, 4, 4, 2, 1, 6, 5, 5, 6, 5, 5, 7, 5, 5, 4, 4, 2, 6, 4, 3, 9, 9, 8, 6, 5, 5, 10, 7, 7, 3, 2, 1, 9, 9, 9, 3, 3, 1
 |7, 6, 5, 7, 5, 5, 9, 7, 3, 7, 5, 5, 10, 8, 8, 4, 3, 2, 8, 3, 1, 5, 4, 2, 5, 4, 2, 7, 6, 5, 7, 5, 3, 7, 6, 6, 6, 6, 3, 6, 4, 2, 4, 3, 2, 3, 2, 2, 6, 5, 2, 7, 3, 2, 8, 8, 7, 8, 8, 8, 8, 6, 5, 10, 8, 5, 10, 8, 8, 6, 6, 6, 6, 6, 5, 7, 6, 6, 7, 6, 5, 9, 8, 7, 5, 4, 4, 8, 6, 3, 8, 6, 4, 6, 6, 3, 3, 1, 1, 6, 3, 1, 9, 7, 7, 9, 8, 7, 8, 7, 5, 4, 3, 2, 7, 7, 6, 6, 5, 3, 6, 5, 2, 10, 10, 10, 8, 5, 4, 6, 5, 5, 2, 2, 1, 3, 3, 3, 3, 3, 3, 3, 2, 2, 9, 6, 4, 5, 5, 4
 |7, 6, 6, 10, 10, 10, 6, 6, 3, 8, 4, 4, 8, 7, 7, 7, 7, 7, 4, 4, 4, 7, 7, 7, 4, 2, 2, 8, 5, 4, 4, 3, 1, 5, 4, 4, 10, 8, 4, 10, 9, 8, 6, 4, 4, 9, 7, 6, 8, 8, 7, 5, 3, 1, 7, 6, 5, 4, 3, 3, 6, 6, 6, 9, 6, 5, 9, 8, 6, 4, 3, 2, 7, 5, 4, 4, 2, 1, 6, 3, 1, 2, 2, 2, 10, 10, 10, 5, 4, 4, 7, 6, 6, 6, 6, 6, 7, 7, 3, 6, 6, 6, 2, 2, 2, 8, 6, 3, 8, 5, 2, 9, 8, 7, 8, 8, 7, 8, 4, 2, 6, 6, 5, 9, 6, 2, 10, 10, 10, 5, 3, 2, 5, 5, 5, 7, 4, 3, 10, 6, 6, 9, 6, 5, 3, 3, 3, 8, 8, 7
 |6, 4, 4, 8, 5, 3, 7, 5, 2, 8, 7, 4, 8, 7, 6, 8, 7, 7, 7, 4, 4, 8, 8, 5, 9, 9, 9, 8, 8, 8, 5, 5, 5, 8, 5, 3, 7, 5, 3, 7, 7, 7, 10, 10, 10, 7, 7, 5, 8, 7, 7, 6, 4, 2, 8, 5, 4, 8, 8, 7, 4, 4, 4, 10, 6, 6, 4, 3, 2, 6, 6, 6, 5, 3, 2, 8, 7, 2, 9, 5, 3, 3, 2, 2, 8, 5, 4, 7, 4, 1, 7, 5, 2, 9, 6, 4, 6, 5, 5, 9, 6, 3, 2, 2, 1, 3, 1, 1, 6, 5, 4, 10, 10, 10, 9, 6, 4, 7, 4, 1, 2, 2, 2, 2, 2, 1, 5, 5, 4, 7, 6, 5, 10, 9, 8, 6, 3, 2, 9, 6, 5, 6, 5, 5, 5, 4, 3, 5, 4, 4|];